\ Model TP OSE Octobre 2019
\ LP format - for model browsing. Use MPS format to capture full model detail.
Maximize
  0.0134722222222222 mcarb0 - 0.19 mbiog0 + 0.1675166666666666 mbois0
   + 0.1937541666666666 mrecy0 + 0.1165333333333333 masse_humidvert0
   + 0.2165833333333333 masse_a_sechervert0 + 0.2185 masse_humidbiog0
   + 0.23 masse_a_secherbiog0 - 0.128 mb30A0 - 0.12 mb30C0 - 0.128 mb480
   - 0.116 mb070 - 0.044 mb130 - 0.076 mb840 - 0.06 mb830 - 0.1 mb050
   - 0.088 mb040 - 0.116 mb2000 - 0.156 mb3000 - 0.196 mb4000
   - 1.45125 incorp_biomasse0 - C31 + 0.0134722222222222 mcarb1
   - 0.19 mbiog1 + 0.1675166666666666 mbois1 + 0.1937541666666666 mrecy1
   + 0.1165333333333333 masse_humidvert1
   + 0.2165833333333333 masse_a_sechervert1 + 0.2185 masse_humidbiog1
   + 0.23 masse_a_secherbiog1 - 0.128 mb30A1 - 0.12 mb30C1 - 0.128 mb481
   - 0.116 mb071 - 0.044 mb131 - 0.076 mb841 - 0.06 mb831 - 0.1 mb051
   - 0.088 mb041 - 0.116 mb2001 - 0.156 mb3001 - 0.196 mb4001
   - 1.45125 incorp_biomasse1 - C63 + 0.0134722222222222 mcarb2
   - 0.19 mbiog2 + 0.1675166666666666 mbois2 + 0.1937541666666666 mrecy2
   + 0.1165333333333333 masse_humidvert2
   + 0.2165833333333333 masse_a_sechervert2 + 0.2185 masse_humidbiog2
   + 0.23 masse_a_secherbiog2 - 0.128 mb30A2 - 0.12 mb30C2 - 0.128 mb482
   - 0.116 mb072 - 0.044 mb132 - 0.076 mb842 - 0.06 mb832 - 0.1 mb052
   - 0.088 mb042 - 0.116 mb2002 - 0.156 mb3002 - 0.196 mb4002
   - 1.45125 incorp_biomasse2 - C95 + 0.0134722222222222 mcarb3
   - 0.19 mbiog3 + 0.1675166666666666 mbois3 + 0.1937541666666666 mrecy3
   + 0.1165333333333333 masse_humidvert3
   + 0.2165833333333333 masse_a_sechervert3 + 0.2185 masse_humidbiog3
   + 0.23 masse_a_secherbiog3 - 0.128 mb30A3 - 0.12 mb30C3 - 0.128 mb483
   - 0.116 mb073 - 0.044 mb133 - 0.076 mb843 - 0.06 mb833 - 0.1 mb053
   - 0.088 mb043 - 0.116 mb2003 - 0.156 mb3003 - 0.196 mb4003
   - 1.45125 incorp_biomasse3 - C127 + 0.0134722222222222 mcarb4
   - 0.19 mbiog4 + 0.1675166666666666 mbois4 + 0.1937541666666666 mrecy4
   + 0.1165333333333333 masse_humidvert4
   + 0.2165833333333333 masse_a_sechervert4 + 0.2185 masse_humidbiog4
   + 0.23 masse_a_secherbiog4 - 0.128 mb30A4 - 0.12 mb30C4 - 0.128 mb484
   - 0.116 mb074 - 0.044 mb134 - 0.076 mb844 - 0.06 mb834 - 0.1 mb054
   - 0.088 mb044 - 0.116 mb2004 - 0.156 mb3004 - 0.196 mb4004
   - 1.45125 incorp_biomasse4 - C159 + 0.0134722222222222 mcarb5
   - 0.19 mbiog5 + 0.1675166666666666 mbois5 + 0.1937541666666666 mrecy5
   + 0.1165333333333333 masse_humidvert5
   + 0.2165833333333333 masse_a_sechervert5 + 0.2185 masse_humidbiog5
   + 0.23 masse_a_secherbiog5 - 0.128 mb30A5 - 0.12 mb30C5 - 0.128 mb485
   - 0.116 mb075 - 0.044 mb135 - 0.076 mb845 - 0.06 mb835 - 0.1 mb055
   - 0.088 mb045 - 0.116 mb2005 - 0.156 mb3005 - 0.196 mb4005
   - 1.45125 incorp_biomasse5 - C191 + 0.0134722222222222 mcarb6
   - 0.19 mbiog6 + 0.1675166666666666 mbois6 + 0.1937541666666666 mrecy6
   + 0.1165333333333333 masse_humidvert6
   + 0.2165833333333333 masse_a_sechervert6 + 0.2185 masse_humidbiog6
   + 0.23 masse_a_secherbiog6 - 0.128 mb30A6 - 0.12 mb30C6 - 0.128 mb486
   - 0.116 mb076 - 0.044 mb136 - 0.076 mb846 - 0.06 mb836 - 0.1 mb056
   - 0.088 mb046 - 0.116 mb2006 - 0.156 mb3006 - 0.196 mb4006
   - 1.45125 incorp_biomasse6 - C223 + 0.0134722222222222 mcarb7
   - 0.19 mbiog7 + 0.1675166666666666 mbois7 + 0.1937541666666666 mrecy7
   + 0.1165333333333333 masse_humidvert7
   + 0.2165833333333333 masse_a_sechervert7 + 0.2185 masse_humidbiog7
   + 0.23 masse_a_secherbiog7 - 0.128 mb30A7 - 0.12 mb30C7 - 0.128 mb487
   - 0.116 mb077 - 0.044 mb137 - 0.076 mb847 - 0.06 mb837 - 0.1 mb057
   - 0.088 mb047 - 0.116 mb2007 - 0.156 mb3007 - 0.196 mb4007
   - 1.45125 incorp_biomasse7 - C255 + 0.0134722222222222 mcarb8
   - 0.19 mbiog8 + 0.1675166666666666 mbois8 + 0.1937541666666666 mrecy8
   + 0.1165333333333333 masse_humidvert8
   + 0.2165833333333333 masse_a_sechervert8 + 0.2185 masse_humidbiog8
   + 0.23 masse_a_secherbiog8 - 0.128 mb30A8 - 0.12 mb30C8 - 0.128 mb488
   - 0.116 mb078 - 0.044 mb138 - 0.076 mb848 - 0.06 mb838 - 0.1 mb058
   - 0.088 mb048 - 0.116 mb2008 - 0.156 mb3008 - 0.196 mb4008
   - 1.45125 incorp_biomasse8 - C287 + 0.0134722222222222 mcarb9
   - 0.19 mbiog9 + 0.1675166666666666 mbois9 + 0.1937541666666666 mrecy9
   + 0.1165333333333333 masse_humidvert9
   + 0.2165833333333333 masse_a_sechervert9 + 0.2185 masse_humidbiog9
   + 0.23 masse_a_secherbiog9 - 0.128 mb30A9 - 0.12 mb30C9 - 0.128 mb489
   - 0.116 mb079 - 0.044 mb139 - 0.076 mb849 - 0.06 mb839 - 0.1 mb059
   - 0.088 mb049 - 0.116 mb2009 - 0.156 mb3009 - 0.196 mb4009
   - 1.45125 incorp_biomasse9 - C319 + 0.0134722222222222 mcarb10
   - 0.19 mbiog10 + 0.1675166666666666 mbois10 + 0.1937541666666666 mrecy10
   + 0.1165333333333333 masse_humidvert10
   + 0.2165833333333333 masse_a_sechervert10 + 0.2185 masse_humidbiog10
   + 0.23 masse_a_secherbiog10 - 0.128 mb30A10 - 0.12 mb30C10
   - 0.128 mb4810 - 0.116 mb0710 - 0.044 mb1310 - 0.076 mb8410
   - 0.06 mb8310 - 0.1 mb0510 - 0.088 mb0410 - 0.116 mb20010
   - 0.156 mb30010 - 0.196 mb40010 - 1.45125 incorp_biomasse10 - C351
   + 0.0134722222222222 mcarb11 - 0.19 mbiog11 + 0.1675166666666666 mbois11
   + 0.1937541666666666 mrecy11 + 0.1165333333333333 masse_humidvert11
   + 0.2165833333333333 masse_a_sechervert11 + 0.2185 masse_humidbiog11
   + 0.23 masse_a_secherbiog11 - 0.128 mb30A11 - 0.12 mb30C11
   - 0.128 mb4811 - 0.116 mb0711 - 0.044 mb1311 - 0.076 mb8411
   - 0.06 mb8311 - 0.1 mb0511 - 0.088 mb0411 - 0.116 mb20011
   - 0.156 mb30011 - 0.196 mb40011 - 1.45125 incorp_biomasse11 - C383
   + 0.0134722222222222 mcarb12 - 0.19 mbiog12 + 0.1675166666666666 mbois12
   + 0.1937541666666666 mrecy12 + 0.1165333333333333 masse_humidvert12
   + 0.2165833333333333 masse_a_sechervert12 + 0.2185 masse_humidbiog12
   + 0.23 masse_a_secherbiog12 - 0.128 mb30A12 - 0.12 mb30C12
   - 0.128 mb4812 - 0.116 mb0712 - 0.044 mb1312 - 0.076 mb8412
   - 0.06 mb8312 - 0.1 mb0512 - 0.088 mb0412 - 0.116 mb20012
   - 0.156 mb30012 - 0.196 mb40012 - 1.45125 incorp_biomasse12 - C415
   + 0.0134722222222222 mcarb13 - 0.19 mbiog13 + 0.1675166666666666 mbois13
   + 0.1937541666666666 mrecy13 + 0.1165333333333333 masse_humidvert13
   + 0.2165833333333333 masse_a_sechervert13 + 0.2185 masse_humidbiog13
   + 0.23 masse_a_secherbiog13 - 0.128 mb30A13 - 0.12 mb30C13
   - 0.128 mb4813 - 0.116 mb0713 - 0.044 mb1313 - 0.076 mb8413
   - 0.06 mb8313 - 0.1 mb0513 - 0.088 mb0413 - 0.116 mb20013
   - 0.156 mb30013 - 0.196 mb40013 - 1.45125 incorp_biomasse13 - C447
   + 0.0134722222222222 mcarb14 - 0.19 mbiog14 + 0.1675166666666666 mbois14
   + 0.1937541666666666 mrecy14 + 0.1165333333333333 masse_humidvert14
   + 0.2165833333333333 masse_a_sechervert14 + 0.2185 masse_humidbiog14
   + 0.23 masse_a_secherbiog14 - 0.128 mb30A14 - 0.12 mb30C14
   - 0.128 mb4814 - 0.116 mb0714 - 0.044 mb1314 - 0.076 mb8414
   - 0.06 mb8314 - 0.1 mb0514 - 0.088 mb0414 - 0.116 mb20014
   - 0.156 mb30014 - 0.196 mb40014 - 1.45125 incorp_biomasse14 - C479
   + 0.0134722222222222 mcarb15 - 0.19 mbiog15 + 0.1675166666666666 mbois15
   + 0.1937541666666666 mrecy15 + 0.1165333333333333 masse_humidvert15
   + 0.2165833333333333 masse_a_sechervert15 + 0.2185 masse_humidbiog15
   + 0.23 masse_a_secherbiog15 - 0.128 mb30A15 - 0.12 mb30C15
   - 0.128 mb4815 - 0.116 mb0715 - 0.044 mb1315 - 0.076 mb8415
   - 0.06 mb8315 - 0.1 mb0515 - 0.088 mb0415 - 0.116 mb20015
   - 0.156 mb30015 - 0.196 mb40015 - 1.45125 incorp_biomasse15 - C511
   + 0.0134722222222222 mcarb16 - 0.19 mbiog16 + 0.1675166666666666 mbois16
   + 0.1937541666666666 mrecy16 + 0.1165333333333333 masse_humidvert16
   + 0.2165833333333333 masse_a_sechervert16 + 0.2185 masse_humidbiog16
   + 0.23 masse_a_secherbiog16 - 0.128 mb30A16 - 0.12 mb30C16
   - 0.128 mb4816 - 0.116 mb0716 - 0.044 mb1316 - 0.076 mb8416
   - 0.06 mb8316 - 0.1 mb0516 - 0.088 mb0416 - 0.116 mb20016
   - 0.156 mb30016 - 0.196 mb40016 - 1.45125 incorp_biomasse16 - C543
   + 0.0134722222222222 mcarb17 - 0.19 mbiog17 + 0.1675166666666666 mbois17
   + 0.1937541666666666 mrecy17 + 0.1165333333333333 masse_humidvert17
   + 0.2165833333333333 masse_a_sechervert17 + 0.2185 masse_humidbiog17
   + 0.23 masse_a_secherbiog17 - 0.128 mb30A17 - 0.12 mb30C17
   - 0.128 mb4817 - 0.116 mb0717 - 0.044 mb1317 - 0.076 mb8417
   - 0.06 mb8317 - 0.1 mb0517 - 0.088 mb0417 - 0.116 mb20017
   - 0.156 mb30017 - 0.196 mb40017 - 1.45125 incorp_biomasse17 - C575
   + 0.0134722222222222 mcarb18 - 0.19 mbiog18 + 0.1675166666666666 mbois18
   + 0.1937541666666666 mrecy18 + 0.1165333333333333 masse_humidvert18
   + 0.2165833333333333 masse_a_sechervert18 + 0.2185 masse_humidbiog18
   + 0.23 masse_a_secherbiog18 - 0.128 mb30A18 - 0.12 mb30C18
   - 0.128 mb4818 - 0.116 mb0718 - 0.044 mb1318 - 0.076 mb8418
   - 0.06 mb8318 - 0.1 mb0518 - 0.088 mb0418 - 0.116 mb20018
   - 0.156 mb30018 - 0.196 mb40018 - 1.45125 incorp_biomasse18 - C607
   + 0.0134722222222222 mcarb19 - 0.19 mbiog19 + 0.1675166666666666 mbois19
   + 0.1937541666666666 mrecy19 + 0.1165333333333333 masse_humidvert19
   + 0.2165833333333333 masse_a_sechervert19 + 0.2185 masse_humidbiog19
   + 0.23 masse_a_secherbiog19 - 0.128 mb30A19 - 0.12 mb30C19
   - 0.128 mb4819 - 0.116 mb0719 - 0.044 mb1319 - 0.076 mb8419
   - 0.06 mb8319 - 0.1 mb0519 - 0.088 mb0419 - 0.116 mb20019
   - 0.156 mb30019 - 0.196 mb40019 - 1.45125 incorp_biomasse19 - C639
   - 29.625 Constant
Subject To
 R0: 0.9 mcarb0 - 0.1 mbiog0 - 0.1 mvert0 - 0.1 mbois0 - 0.1 mrecy0 >= 0
 R1: 6944.444444444443 mcarb0 + 3833.333333333333 mbois0
   + 4708.333333333333 mrecy0 + 2666.666666666667 masse_humidvert0
   + 4956.140350877193 masse_a_sechervert0 + 5000 masse_humidbiog0
   + 5263.157894736841 masse_a_secherbiog0 = 4.9342105263157897e+06
 R2: masse_a_sechervert0 + masse_a_secherbiog0 <= 150
 R3: mvert0 - masse_humidvert0 - masse_a_sechervert0 = 0
 R4: mbiog0 - masse_humidbiog0 - masse_a_secherbiog0 = 0
 R5: mvert0 + mbois0 + mrecy0 <= 547.5
 R6: mbois0 - mb30A0 - mb30C0 - mb480 - mb070 - mb130 - mb840 - mb830
   - mb050 - mb040 - mb2000 - mb3000 - mb4000 = 0
 R7: - mcarb0 + mbiog0 + mvert0 + mbois0 + mrecy0
   - 710.5263157894739 incorp_biomasse0 >= -710.5263157894739
 R8: C22 + C23 + C24 + C25 + C26 + C27 + C28 + C29 + C30 = 1
 R9: - mvert0 + C22 + 7 C23 + 22 C24 + 29 C25 + 52 C26 + 57 C27 + 53 C28
   + 210 C29 + 313 C30 = 0
 R10: 0.004 C22 + 0.007 C23 + 0.01 C24 + 0.016 C25 + 0.025 C26 + 0.031 C27
   + 0.046 C28 + 0.061 C29 + 0.076 C30 - C31 = 0
 R11: 0.9 mcarb1 - 0.1 mbiog1 - 0.1 mvert1 - 0.1 mbois1 - 0.1 mrecy1 >= 0
 R12: 6944.444444444443 mcarb1 + 3833.333333333333 mbois1
   + 4708.333333333333 mrecy1 + 2666.666666666667 masse_humidvert1
   + 4956.140350877193 masse_a_sechervert1 + 5000 masse_humidbiog1
   + 5263.157894736841 masse_a_secherbiog1 = 4.9342105263157897e+06
 R13: masse_a_sechervert1 + masse_a_secherbiog1 <= 150
 R14: mvert1 - masse_humidvert1 - masse_a_sechervert1 = 0
 R15: mbiog1 - masse_humidbiog1 - masse_a_secherbiog1 = 0
 R16: mvert1 + mbois1 + mrecy1 <= 547.5
 R17: mbois1 - mb30A1 - mb30C1 - mb481 - mb071 - mb131 - mb841 - mb831
   - mb051 - mb041 - mb2001 - mb3001 - mb4001 = 0
 R18: - mcarb1 + mbiog1 + mvert1 + mbois1 + mrecy1
   - 710.5263157894739 incorp_biomasse1 >= -710.5263157894739
 R19: C54 + C55 + C56 + C57 + C58 + C59 + C60 + C61 + C62 = 1
 R20: - mvert1 + C54 + 7 C55 + 22 C56 + 29 C57 + 52 C58 + 57 C59 + 53 C60
   + 210 C61 + 313 C62 = 0
 R21: 0.004 C54 + 0.007 C55 + 0.01 C56 + 0.016 C57 + 0.025 C58 + 0.031 C59
   + 0.046 C60 + 0.061 C61 + 0.076 C62 - C63 = 0
 R22: 0.9 mcarb2 - 0.1 mbiog2 - 0.1 mvert2 - 0.1 mbois2 - 0.1 mrecy2 >= 0
 R23: 6944.444444444443 mcarb2 + 3833.333333333333 mbois2
   + 4708.333333333333 mrecy2 + 2666.666666666667 masse_humidvert2
   + 4956.140350877193 masse_a_sechervert2 + 5000 masse_humidbiog2
   + 5263.157894736841 masse_a_secherbiog2 = 4.9342105263157897e+06
 R24: masse_a_sechervert2 + masse_a_secherbiog2 <= 150
 R25: mvert2 - masse_humidvert2 - masse_a_sechervert2 = 0
 R26: mbiog2 - masse_humidbiog2 - masse_a_secherbiog2 = 0
 R27: mvert2 + mbois2 + mrecy2 <= 547.5
 R28: mbois2 - mb30A2 - mb30C2 - mb482 - mb072 - mb132 - mb842 - mb832
   - mb052 - mb042 - mb2002 - mb3002 - mb4002 = 0
 R29: - mcarb2 + mbiog2 + mvert2 + mbois2 + mrecy2
   - 710.5263157894739 incorp_biomasse2 >= -710.5263157894739
 R30: C86 + C87 + C88 + C89 + C90 + C91 + C92 + C93 + C94 = 1
 R31: - mvert2 + C86 + 7 C87 + 22 C88 + 29 C89 + 52 C90 + 57 C91 + 53 C92
   + 210 C93 + 313 C94 = 0
 R32: 0.004 C86 + 0.007 C87 + 0.01 C88 + 0.016 C89 + 0.025 C90 + 0.031 C91
   + 0.046 C92 + 0.061 C93 + 0.076 C94 - C95 = 0
 R33: 0.9 mcarb3 - 0.1 mbiog3 - 0.1 mvert3 - 0.1 mbois3 - 0.1 mrecy3 >= 0
 R34: 6944.444444444443 mcarb3 + 3833.333333333333 mbois3
   + 4708.333333333333 mrecy3 + 2666.666666666667 masse_humidvert3
   + 4956.140350877193 masse_a_sechervert3 + 5000 masse_humidbiog3
   + 5263.157894736841 masse_a_secherbiog3 = 4.9342105263157897e+06
 R35: masse_a_sechervert3 + masse_a_secherbiog3 <= 150
 R36: mvert3 - masse_humidvert3 - masse_a_sechervert3 = 0
 R37: mbiog3 - masse_humidbiog3 - masse_a_secherbiog3 = 0
 R38: mvert3 + mbois3 + mrecy3 <= 547.5
 R39: mbois3 - mb30A3 - mb30C3 - mb483 - mb073 - mb133 - mb843 - mb833
   - mb053 - mb043 - mb2003 - mb3003 - mb4003 = 0
 R40: - mcarb3 + mbiog3 + mvert3 + mbois3 + mrecy3
   - 710.5263157894739 incorp_biomasse3 >= -710.5263157894739
 R41: C118 + C119 + C120 + C121 + C122 + C123 + C124 + C125 + C126 = 1
 R42: - mvert3 + C118 + 7 C119 + 22 C120 + 29 C121 + 52 C122 + 57 C123
   + 53 C124 + 210 C125 + 313 C126 = 0
 R43: 0.004 C118 + 0.007 C119 + 0.01 C120 + 0.016 C121 + 0.025 C122
   + 0.031 C123 + 0.046 C124 + 0.061 C125 + 0.076 C126 - C127 = 0
 R44: 0.9 mcarb4 - 0.1 mbiog4 - 0.1 mvert4 - 0.1 mbois4 - 0.1 mrecy4 >= 0
 R45: 6944.444444444443 mcarb4 + 3833.333333333333 mbois4
   + 4708.333333333333 mrecy4 + 2666.666666666667 masse_humidvert4
   + 4956.140350877193 masse_a_sechervert4 + 5000 masse_humidbiog4
   + 5263.157894736841 masse_a_secherbiog4 = 4.9342105263157897e+06
 R46: masse_a_sechervert4 + masse_a_secherbiog4 <= 150
 R47: mvert4 - masse_humidvert4 - masse_a_sechervert4 = 0
 R48: mbiog4 - masse_humidbiog4 - masse_a_secherbiog4 = 0
 R49: mvert4 + mbois4 + mrecy4 <= 547.5
 R50: mbois4 - mb30A4 - mb30C4 - mb484 - mb074 - mb134 - mb844 - mb834
   - mb054 - mb044 - mb2004 - mb3004 - mb4004 = 0
 R51: - mcarb4 + mbiog4 + mvert4 + mbois4 + mrecy4
   - 710.5263157894739 incorp_biomasse4 >= -710.5263157894739
 R52: C150 + C151 + C152 + C153 + C154 + C155 + C156 + C157 + C158 = 1
 R53: - mvert4 + C150 + 7 C151 + 22 C152 + 29 C153 + 52 C154 + 57 C155
   + 53 C156 + 210 C157 + 313 C158 = 0
 R54: 0.004 C150 + 0.007 C151 + 0.01 C152 + 0.016 C153 + 0.025 C154
   + 0.031 C155 + 0.046 C156 + 0.061 C157 + 0.076 C158 - C159 = 0
 R55: 0.9 mcarb5 - 0.1 mbiog5 - 0.1 mvert5 - 0.1 mbois5 - 0.1 mrecy5 >= 0
 R56: 6944.444444444443 mcarb5 + 3833.333333333333 mbois5
   + 4708.333333333333 mrecy5 + 2666.666666666667 masse_humidvert5
   + 4956.140350877193 masse_a_sechervert5 + 5000 masse_humidbiog5
   + 5263.157894736841 masse_a_secherbiog5 = 4.9342105263157897e+06
 R57: masse_a_sechervert5 + masse_a_secherbiog5 <= 150
 R58: mvert5 - masse_humidvert5 - masse_a_sechervert5 = 0
 R59: mbiog5 - masse_humidbiog5 - masse_a_secherbiog5 = 0
 R60: mvert5 + mbois5 + mrecy5 <= 547.5
 R61: mbois5 - mb30A5 - mb30C5 - mb485 - mb075 - mb135 - mb845 - mb835
   - mb055 - mb045 - mb2005 - mb3005 - mb4005 = 0
 R62: - mcarb5 + mbiog5 + mvert5 + mbois5 + mrecy5
   - 710.5263157894739 incorp_biomasse5 >= -710.5263157894739
 R63: C182 + C183 + C184 + C185 + C186 + C187 + C188 + C189 + C190 = 1
 R64: - mvert5 + C182 + 7 C183 + 22 C184 + 29 C185 + 52 C186 + 57 C187
   + 53 C188 + 210 C189 + 313 C190 = 0
 R65: 0.004 C182 + 0.007 C183 + 0.01 C184 + 0.016 C185 + 0.025 C186
   + 0.031 C187 + 0.046 C188 + 0.061 C189 + 0.076 C190 - C191 = 0
 R66: 0.9 mcarb6 - 0.1 mbiog6 - 0.1 mvert6 - 0.1 mbois6 - 0.1 mrecy6 >= 0
 R67: 6944.444444444443 mcarb6 + 3833.333333333333 mbois6
   + 4708.333333333333 mrecy6 + 2666.666666666667 masse_humidvert6
   + 4956.140350877193 masse_a_sechervert6 + 5000 masse_humidbiog6
   + 5263.157894736841 masse_a_secherbiog6 = 4.9342105263157897e+06
 R68: masse_a_sechervert6 + masse_a_secherbiog6 <= 150
 R69: mvert6 - masse_humidvert6 - masse_a_sechervert6 = 0
 R70: mbiog6 - masse_humidbiog6 - masse_a_secherbiog6 = 0
 R71: mvert6 + mbois6 + mrecy6 <= 547.5
 R72: mbois6 - mb30A6 - mb30C6 - mb486 - mb076 - mb136 - mb846 - mb836
   - mb056 - mb046 - mb2006 - mb3006 - mb4006 = 0
 R73: - mcarb6 + mbiog6 + mvert6 + mbois6 + mrecy6
   - 710.5263157894739 incorp_biomasse6 >= -710.5263157894739
 R74: C214 + C215 + C216 + C217 + C218 + C219 + C220 + C221 + C222 = 1
 R75: - mvert6 + C214 + 7 C215 + 22 C216 + 29 C217 + 52 C218 + 57 C219
   + 53 C220 + 210 C221 + 313 C222 = 0
 R76: 0.004 C214 + 0.007 C215 + 0.01 C216 + 0.016 C217 + 0.025 C218
   + 0.031 C219 + 0.046 C220 + 0.061 C221 + 0.076 C222 - C223 = 0
 R77: 0.9 mcarb7 - 0.1 mbiog7 - 0.1 mvert7 - 0.1 mbois7 - 0.1 mrecy7 >= 0
 R78: 6944.444444444443 mcarb7 + 3833.333333333333 mbois7
   + 4708.333333333333 mrecy7 + 2666.666666666667 masse_humidvert7
   + 4956.140350877193 masse_a_sechervert7 + 5000 masse_humidbiog7
   + 5263.157894736841 masse_a_secherbiog7 = 4.9342105263157897e+06
 R79: masse_a_sechervert7 + masse_a_secherbiog7 <= 150
 R80: mvert7 - masse_humidvert7 - masse_a_sechervert7 = 0
 R81: mbiog7 - masse_humidbiog7 - masse_a_secherbiog7 = 0
 R82: mvert7 + mbois7 + mrecy7 <= 547.5
 R83: mbois7 - mb30A7 - mb30C7 - mb487 - mb077 - mb137 - mb847 - mb837
   - mb057 - mb047 - mb2007 - mb3007 - mb4007 = 0
 R84: - mcarb7 + mbiog7 + mvert7 + mbois7 + mrecy7
   - 710.5263157894739 incorp_biomasse7 >= -710.5263157894739
 R85: C246 + C247 + C248 + C249 + C250 + C251 + C252 + C253 + C254 = 1
 R86: - mvert7 + C246 + 7 C247 + 22 C248 + 29 C249 + 52 C250 + 57 C251
   + 53 C252 + 210 C253 + 313 C254 = 0
 R87: 0.004 C246 + 0.007 C247 + 0.01 C248 + 0.016 C249 + 0.025 C250
   + 0.031 C251 + 0.046 C252 + 0.061 C253 + 0.076 C254 - C255 = 0
 R88: 0.9 mcarb8 - 0.1 mbiog8 - 0.1 mvert8 - 0.1 mbois8 - 0.1 mrecy8 >= 0
 R89: 6944.444444444443 mcarb8 + 3833.333333333333 mbois8
   + 4708.333333333333 mrecy8 + 2666.666666666667 masse_humidvert8
   + 4956.140350877193 masse_a_sechervert8 + 5000 masse_humidbiog8
   + 5263.157894736841 masse_a_secherbiog8 = 4.9342105263157897e+06
 R90: masse_a_sechervert8 + masse_a_secherbiog8 <= 150
 R91: mvert8 - masse_humidvert8 - masse_a_sechervert8 = 0
 R92: mbiog8 - masse_humidbiog8 - masse_a_secherbiog8 = 0
 R93: mvert8 + mbois8 + mrecy8 <= 547.5
 R94: mbois8 - mb30A8 - mb30C8 - mb488 - mb078 - mb138 - mb848 - mb838
   - mb058 - mb048 - mb2008 - mb3008 - mb4008 = 0
 R95: - mcarb8 + mbiog8 + mvert8 + mbois8 + mrecy8
   - 710.5263157894739 incorp_biomasse8 >= -710.5263157894739
 R96: C278 + C279 + C280 + C281 + C282 + C283 + C284 + C285 + C286 = 1
 R97: - mvert8 + C278 + 7 C279 + 22 C280 + 29 C281 + 52 C282 + 57 C283
   + 53 C284 + 210 C285 + 313 C286 = 0
 R98: 0.004 C278 + 0.007 C279 + 0.01 C280 + 0.016 C281 + 0.025 C282
   + 0.031 C283 + 0.046 C284 + 0.061 C285 + 0.076 C286 - C287 = 0
 R99: 0.9 mcarb9 - 0.1 mbiog9 - 0.1 mvert9 - 0.1 mbois9 - 0.1 mrecy9 >= 0
 R100: 6944.444444444443 mcarb9 + 3833.333333333333 mbois9
   + 4708.333333333333 mrecy9 + 2666.666666666667 masse_humidvert9
   + 4956.140350877193 masse_a_sechervert9 + 5000 masse_humidbiog9
   + 5263.157894736841 masse_a_secherbiog9 = 4.9342105263157897e+06
 R101: masse_a_sechervert9 + masse_a_secherbiog9 <= 150
 R102: mvert9 - masse_humidvert9 - masse_a_sechervert9 = 0
 R103: mbiog9 - masse_humidbiog9 - masse_a_secherbiog9 = 0
 R104: mvert9 + mbois9 + mrecy9 <= 547.5
 R105: mbois9 - mb30A9 - mb30C9 - mb489 - mb079 - mb139 - mb849 - mb839
   - mb059 - mb049 - mb2009 - mb3009 - mb4009 = 0
 R106: - mcarb9 + mbiog9 + mvert9 + mbois9 + mrecy9
   - 710.5263157894739 incorp_biomasse9 >= -710.5263157894739
 R107: C310 + C311 + C312 + C313 + C314 + C315 + C316 + C317 + C318 = 1
 R108: - mvert9 + C310 + 7 C311 + 22 C312 + 29 C313 + 52 C314 + 57 C315
   + 53 C316 + 210 C317 + 313 C318 = 0
 R109: 0.004 C310 + 0.007 C311 + 0.01 C312 + 0.016 C313 + 0.025 C314
   + 0.031 C315 + 0.046 C316 + 0.061 C317 + 0.076 C318 - C319 = 0
 R110: 0.9 mcarb10 - 0.1 mbiog10 - 0.1 mvert10 - 0.1 mbois10 - 0.1 mrecy10
   >= 0
 R111: 6944.444444444443 mcarb10 + 3833.333333333333 mbois10
   + 4708.333333333333 mrecy10 + 2666.666666666667 masse_humidvert10
   + 4956.140350877193 masse_a_sechervert10 + 5000 masse_humidbiog10
   + 5263.157894736841 masse_a_secherbiog10 = 4.9342105263157897e+06
 R112: masse_a_sechervert10 + masse_a_secherbiog10 <= 150
 R113: mvert10 - masse_humidvert10 - masse_a_sechervert10 = 0
 R114: mbiog10 - masse_humidbiog10 - masse_a_secherbiog10 = 0
 R115: mvert10 + mbois10 + mrecy10 <= 547.5
 R116: mbois10 - mb30A10 - mb30C10 - mb4810 - mb0710 - mb1310 - mb8410
   - mb8310 - mb0510 - mb0410 - mb20010 - mb30010 - mb40010 = 0
 R117: - mcarb10 + mbiog10 + mvert10 + mbois10 + mrecy10
   - 710.5263157894739 incorp_biomasse10 >= -710.5263157894739
 R118: C342 + C343 + C344 + C345 + C346 + C347 + C348 + C349 + C350 = 1
 R119: - mvert10 + C342 + 7 C343 + 22 C344 + 29 C345 + 52 C346 + 57 C347
   + 53 C348 + 210 C349 + 313 C350 = 0
 R120: 0.004 C342 + 0.007 C343 + 0.01 C344 + 0.016 C345 + 0.025 C346
   + 0.031 C347 + 0.046 C348 + 0.061 C349 + 0.076 C350 - C351 = 0
 R121: 0.9 mcarb11 - 0.1 mbiog11 - 0.1 mvert11 - 0.1 mbois11 - 0.1 mrecy11
   >= 0
 R122: 6944.444444444443 mcarb11 + 3833.333333333333 mbois11
   + 4708.333333333333 mrecy11 + 2666.666666666667 masse_humidvert11
   + 4956.140350877193 masse_a_sechervert11 + 5000 masse_humidbiog11
   + 5263.157894736841 masse_a_secherbiog11 = 4.9342105263157897e+06
 R123: masse_a_sechervert11 + masse_a_secherbiog11 <= 150
 R124: mvert11 - masse_humidvert11 - masse_a_sechervert11 = 0
 R125: mbiog11 - masse_humidbiog11 - masse_a_secherbiog11 = 0
 R126: mvert11 + mbois11 + mrecy11 <= 547.5
 R127: mbois11 - mb30A11 - mb30C11 - mb4811 - mb0711 - mb1311 - mb8411
   - mb8311 - mb0511 - mb0411 - mb20011 - mb30011 - mb40011 = 0
 R128: - mcarb11 + mbiog11 + mvert11 + mbois11 + mrecy11
   - 710.5263157894739 incorp_biomasse11 >= -710.5263157894739
 R129: C374 + C375 + C376 + C377 + C378 + C379 + C380 + C381 + C382 = 1
 R130: - mvert11 + C374 + 7 C375 + 22 C376 + 29 C377 + 52 C378 + 57 C379
   + 53 C380 + 210 C381 + 313 C382 = 0
 R131: 0.004 C374 + 0.007 C375 + 0.01 C376 + 0.016 C377 + 0.025 C378
   + 0.031 C379 + 0.046 C380 + 0.061 C381 + 0.076 C382 - C383 = 0
 R132: 0.9 mcarb12 - 0.1 mbiog12 - 0.1 mvert12 - 0.1 mbois12 - 0.1 mrecy12
   >= 0
 R133: 6944.444444444443 mcarb12 + 3833.333333333333 mbois12
   + 4708.333333333333 mrecy12 + 2666.666666666667 masse_humidvert12
   + 4956.140350877193 masse_a_sechervert12 + 5000 masse_humidbiog12
   + 5263.157894736841 masse_a_secherbiog12 = 4.9342105263157897e+06
 R134: masse_a_sechervert12 + masse_a_secherbiog12 <= 150
 R135: mvert12 - masse_humidvert12 - masse_a_sechervert12 = 0
 R136: mbiog12 - masse_humidbiog12 - masse_a_secherbiog12 = 0
 R137: mvert12 + mbois12 + mrecy12 <= 547.5
 R138: mbois12 - mb30A12 - mb30C12 - mb4812 - mb0712 - mb1312 - mb8412
   - mb8312 - mb0512 - mb0412 - mb20012 - mb30012 - mb40012 = 0
 R139: - mcarb12 + mbiog12 + mvert12 + mbois12 + mrecy12
   - 710.5263157894739 incorp_biomasse12 >= -710.5263157894739
 R140: C406 + C407 + C408 + C409 + C410 + C411 + C412 + C413 + C414 = 1
 R141: - mvert12 + C406 + 7 C407 + 22 C408 + 29 C409 + 52 C410 + 57 C411
   + 53 C412 + 210 C413 + 313 C414 = 0
 R142: 0.004 C406 + 0.007 C407 + 0.01 C408 + 0.016 C409 + 0.025 C410
   + 0.031 C411 + 0.046 C412 + 0.061 C413 + 0.076 C414 - C415 = 0
 R143: 0.9 mcarb13 - 0.1 mbiog13 - 0.1 mvert13 - 0.1 mbois13 - 0.1 mrecy13
   >= 0
 R144: 6944.444444444443 mcarb13 + 3833.333333333333 mbois13
   + 4708.333333333333 mrecy13 + 2666.666666666667 masse_humidvert13
   + 4956.140350877193 masse_a_sechervert13 + 5000 masse_humidbiog13
   + 5263.157894736841 masse_a_secherbiog13 = 4.9342105263157897e+06
 R145: masse_a_sechervert13 + masse_a_secherbiog13 <= 150
 R146: mvert13 - masse_humidvert13 - masse_a_sechervert13 = 0
 R147: mbiog13 - masse_humidbiog13 - masse_a_secherbiog13 = 0
 R148: mvert13 + mbois13 + mrecy13 <= 547.5
 R149: mbois13 - mb30A13 - mb30C13 - mb4813 - mb0713 - mb1313 - mb8413
   - mb8313 - mb0513 - mb0413 - mb20013 - mb30013 - mb40013 = 0
 R150: - mcarb13 + mbiog13 + mvert13 + mbois13 + mrecy13
   - 710.5263157894739 incorp_biomasse13 >= -710.5263157894739
 R151: C438 + C439 + C440 + C441 + C442 + C443 + C444 + C445 + C446 = 1
 R152: - mvert13 + C438 + 7 C439 + 22 C440 + 29 C441 + 52 C442 + 57 C443
   + 53 C444 + 210 C445 + 313 C446 = 0
 R153: 0.004 C438 + 0.007 C439 + 0.01 C440 + 0.016 C441 + 0.025 C442
   + 0.031 C443 + 0.046 C444 + 0.061 C445 + 0.076 C446 - C447 = 0
 R154: 0.9 mcarb14 - 0.1 mbiog14 - 0.1 mvert14 - 0.1 mbois14 - 0.1 mrecy14
   >= 0
 R155: 6944.444444444443 mcarb14 + 3833.333333333333 mbois14
   + 4708.333333333333 mrecy14 + 2666.666666666667 masse_humidvert14
   + 4956.140350877193 masse_a_sechervert14 + 5000 masse_humidbiog14
   + 5263.157894736841 masse_a_secherbiog14 = 4.9342105263157897e+06
 R156: masse_a_sechervert14 + masse_a_secherbiog14 <= 150
 R157: mvert14 - masse_humidvert14 - masse_a_sechervert14 = 0
 R158: mbiog14 - masse_humidbiog14 - masse_a_secherbiog14 = 0
 R159: mvert14 + mbois14 + mrecy14 <= 547.5
 R160: mbois14 - mb30A14 - mb30C14 - mb4814 - mb0714 - mb1314 - mb8414
   - mb8314 - mb0514 - mb0414 - mb20014 - mb30014 - mb40014 = 0
 R161: - mcarb14 + mbiog14 + mvert14 + mbois14 + mrecy14
   - 710.5263157894739 incorp_biomasse14 >= -710.5263157894739
 R162: C470 + C471 + C472 + C473 + C474 + C475 + C476 + C477 + C478 = 1
 R163: - mvert14 + C470 + 7 C471 + 22 C472 + 29 C473 + 52 C474 + 57 C475
   + 53 C476 + 210 C477 + 313 C478 = 0
 R164: 0.004 C470 + 0.007 C471 + 0.01 C472 + 0.016 C473 + 0.025 C474
   + 0.031 C475 + 0.046 C476 + 0.061 C477 + 0.076 C478 - C479 = 0
 R165: 0.9 mcarb15 - 0.1 mbiog15 - 0.1 mvert15 - 0.1 mbois15 - 0.1 mrecy15
   >= 0
 R166: 6944.444444444443 mcarb15 + 3833.333333333333 mbois15
   + 4708.333333333333 mrecy15 + 2666.666666666667 masse_humidvert15
   + 4956.140350877193 masse_a_sechervert15 + 5000 masse_humidbiog15
   + 5263.157894736841 masse_a_secherbiog15 = 4.9342105263157897e+06
 R167: masse_a_sechervert15 + masse_a_secherbiog15 <= 150
 R168: mvert15 - masse_humidvert15 - masse_a_sechervert15 = 0
 R169: mbiog15 - masse_humidbiog15 - masse_a_secherbiog15 = 0
 R170: mvert15 + mbois15 + mrecy15 <= 547.5
 R171: mbois15 - mb30A15 - mb30C15 - mb4815 - mb0715 - mb1315 - mb8415
   - mb8315 - mb0515 - mb0415 - mb20015 - mb30015 - mb40015 = 0
 R172: - mcarb15 + mbiog15 + mvert15 + mbois15 + mrecy15
   - 710.5263157894739 incorp_biomasse15 >= -710.5263157894739
 R173: C502 + C503 + C504 + C505 + C506 + C507 + C508 + C509 + C510 = 1
 R174: - mvert15 + C502 + 7 C503 + 22 C504 + 29 C505 + 52 C506 + 57 C507
   + 53 C508 + 210 C509 + 313 C510 = 0
 R175: 0.004 C502 + 0.007 C503 + 0.01 C504 + 0.016 C505 + 0.025 C506
   + 0.031 C507 + 0.046 C508 + 0.061 C509 + 0.076 C510 - C511 = 0
 R176: 0.9 mcarb16 - 0.1 mbiog16 - 0.1 mvert16 - 0.1 mbois16 - 0.1 mrecy16
   >= 0
 R177: 6944.444444444443 mcarb16 + 3833.333333333333 mbois16
   + 4708.333333333333 mrecy16 + 2666.666666666667 masse_humidvert16
   + 4956.140350877193 masse_a_sechervert16 + 5000 masse_humidbiog16
   + 5263.157894736841 masse_a_secherbiog16 = 4.9342105263157897e+06
 R178: masse_a_sechervert16 + masse_a_secherbiog16 <= 150
 R179: mvert16 - masse_humidvert16 - masse_a_sechervert16 = 0
 R180: mbiog16 - masse_humidbiog16 - masse_a_secherbiog16 = 0
 R181: mvert16 + mbois16 + mrecy16 <= 547.5
 R182: mbois16 - mb30A16 - mb30C16 - mb4816 - mb0716 - mb1316 - mb8416
   - mb8316 - mb0516 - mb0416 - mb20016 - mb30016 - mb40016 = 0
 R183: - mcarb16 + mbiog16 + mvert16 + mbois16 + mrecy16
   - 710.5263157894739 incorp_biomasse16 >= -710.5263157894739
 R184: C534 + C535 + C536 + C537 + C538 + C539 + C540 + C541 + C542 = 1
 R185: - mvert16 + C534 + 7 C535 + 22 C536 + 29 C537 + 52 C538 + 57 C539
   + 53 C540 + 210 C541 + 313 C542 = 0
 R186: 0.004 C534 + 0.007 C535 + 0.01 C536 + 0.016 C537 + 0.025 C538
   + 0.031 C539 + 0.046 C540 + 0.061 C541 + 0.076 C542 - C543 = 0
 R187: 0.9 mcarb17 - 0.1 mbiog17 - 0.1 mvert17 - 0.1 mbois17 - 0.1 mrecy17
   >= 0
 R188: 6944.444444444443 mcarb17 + 3833.333333333333 mbois17
   + 4708.333333333333 mrecy17 + 2666.666666666667 masse_humidvert17
   + 4956.140350877193 masse_a_sechervert17 + 5000 masse_humidbiog17
   + 5263.157894736841 masse_a_secherbiog17 = 4.9342105263157897e+06
 R189: masse_a_sechervert17 + masse_a_secherbiog17 <= 150
 R190: mvert17 - masse_humidvert17 - masse_a_sechervert17 = 0
 R191: mbiog17 - masse_humidbiog17 - masse_a_secherbiog17 = 0
 R192: mvert17 + mbois17 + mrecy17 <= 547.5
 R193: mbois17 - mb30A17 - mb30C17 - mb4817 - mb0717 - mb1317 - mb8417
   - mb8317 - mb0517 - mb0417 - mb20017 - mb30017 - mb40017 = 0
 R194: - mcarb17 + mbiog17 + mvert17 + mbois17 + mrecy17
   - 710.5263157894739 incorp_biomasse17 >= -710.5263157894739
 R195: C566 + C567 + C568 + C569 + C570 + C571 + C572 + C573 + C574 = 1
 R196: - mvert17 + C566 + 7 C567 + 22 C568 + 29 C569 + 52 C570 + 57 C571
   + 53 C572 + 210 C573 + 313 C574 = 0
 R197: 0.004 C566 + 0.007 C567 + 0.01 C568 + 0.016 C569 + 0.025 C570
   + 0.031 C571 + 0.046 C572 + 0.061 C573 + 0.076 C574 - C575 = 0
 R198: 0.9 mcarb18 - 0.1 mbiog18 - 0.1 mvert18 - 0.1 mbois18 - 0.1 mrecy18
   >= 0
 R199: 6944.444444444443 mcarb18 + 3833.333333333333 mbois18
   + 4708.333333333333 mrecy18 + 2666.666666666667 masse_humidvert18
   + 4956.140350877193 masse_a_sechervert18 + 5000 masse_humidbiog18
   + 5263.157894736841 masse_a_secherbiog18 = 4.9342105263157897e+06
 R200: masse_a_sechervert18 + masse_a_secherbiog18 <= 150
 R201: mvert18 - masse_humidvert18 - masse_a_sechervert18 = 0
 R202: mbiog18 - masse_humidbiog18 - masse_a_secherbiog18 = 0
 R203: mvert18 + mbois18 + mrecy18 <= 547.5
 R204: mbois18 - mb30A18 - mb30C18 - mb4818 - mb0718 - mb1318 - mb8418
   - mb8318 - mb0518 - mb0418 - mb20018 - mb30018 - mb40018 = 0
 R205: - mcarb18 + mbiog18 + mvert18 + mbois18 + mrecy18
   - 710.5263157894739 incorp_biomasse18 >= -710.5263157894739
 R206: C598 + C599 + C600 + C601 + C602 + C603 + C604 + C605 + C606 = 1
 R207: - mvert18 + C598 + 7 C599 + 22 C600 + 29 C601 + 52 C602 + 57 C603
   + 53 C604 + 210 C605 + 313 C606 = 0
 R208: 0.004 C598 + 0.007 C599 + 0.01 C600 + 0.016 C601 + 0.025 C602
   + 0.031 C603 + 0.046 C604 + 0.061 C605 + 0.076 C606 - C607 = 0
 R209: 0.9 mcarb19 - 0.1 mbiog19 - 0.1 mvert19 - 0.1 mbois19 - 0.1 mrecy19
   >= 0
 R210: 6944.444444444443 mcarb19 + 3833.333333333333 mbois19
   + 4708.333333333333 mrecy19 + 2666.666666666667 masse_humidvert19
   + 4956.140350877193 masse_a_sechervert19 + 5000 masse_humidbiog19
   + 5263.157894736841 masse_a_secherbiog19 = 4.9342105263157897e+06
 R211: masse_a_sechervert19 + masse_a_secherbiog19 <= 150
 R212: mvert19 - masse_humidvert19 - masse_a_sechervert19 = 0
 R213: mbiog19 - masse_humidbiog19 - masse_a_secherbiog19 = 0
 R214: mvert19 + mbois19 + mrecy19 <= 547.5
 R215: mbois19 - mb30A19 - mb30C19 - mb4819 - mb0719 - mb1319 - mb8419
   - mb8319 - mb0519 - mb0419 - mb20019 - mb30019 - mb40019 = 0
 R216: - mcarb19 + mbiog19 + mvert19 + mbois19 + mrecy19
   - 710.5263157894739 incorp_biomasse19 >= -710.5263157894739
 R217: C630 + C631 + C632 + C633 + C634 + C635 + C636 + C637 + C638 = 1
 R218: - mvert19 + C630 + 7 C631 + 22 C632 + 29 C633 + 52 C634 + 57 C635
   + 53 C636 + 210 C637 + 313 C638 = 0
 R219: 0.004 C630 + 0.007 C631 + 0.01 C632 + 0.016 C633 + 0.025 C634
   + 0.031 C635 + 0.046 C636 + 0.061 C637 + 0.076 C638 - C639 = 0
Bounds
 mbiog0 <= 700
 mvert0 <= 313
 mrecy0 <= 85
 mb30A0 <= 18
 mb30C0 <= 21
 mb480 <= 12
 mb070 <= 8
 mb130 <= 47
 mb840 <= 24
 mb830 <= 27
 mb050 <= 15
 mb040 <= 26
 mb2000 <= 27
 mb3000 <= 56
 mb4000 <= 93
 C22 <= 1
 C23 <= 1
 C24 <= 1
 C25 <= 1
 C26 <= 1
 C27 <= 1
 C28 <= 1
 C29 <= 1
 C30 <= 1
 mbiog1 <= 700
 mvert1 <= 313
 mrecy1 <= 85
 mb30A1 <= 18
 mb30C1 <= 21
 mb481 <= 12
 mb071 <= 8
 mb131 <= 47
 mb841 <= 24
 mb831 <= 27
 mb051 <= 15
 mb041 <= 26
 mb2001 <= 27
 mb3001 <= 56
 mb4001 <= 93
 C54 <= 1
 C55 <= 1
 C56 <= 1
 C57 <= 1
 C58 <= 1
 C59 <= 1
 C60 <= 1
 C61 <= 1
 C62 <= 1
 mbiog2 <= 700
 mvert2 <= 313
 mrecy2 <= 85
 mb30A2 <= 18
 mb30C2 <= 21
 mb482 <= 12
 mb072 <= 8
 mb132 <= 47
 mb842 <= 24
 mb832 <= 27
 mb052 <= 15
 mb042 <= 26
 mb2002 <= 27
 mb3002 <= 56
 mb4002 <= 93
 C86 <= 1
 C87 <= 1
 C88 <= 1
 C89 <= 1
 C90 <= 1
 C91 <= 1
 C92 <= 1
 C93 <= 1
 C94 <= 1
 mbiog3 <= 700
 mvert3 <= 313
 mrecy3 <= 85
 mb30A3 <= 18
 mb30C3 <= 21
 mb483 <= 12
 mb073 <= 8
 mb133 <= 47
 mb843 <= 24
 mb833 <= 27
 mb053 <= 15
 mb043 <= 26
 mb2003 <= 27
 mb3003 <= 56
 mb4003 <= 93
 C118 <= 1
 C119 <= 1
 C120 <= 1
 C121 <= 1
 C122 <= 1
 C123 <= 1
 C124 <= 1
 C125 <= 1
 C126 <= 1
 mbiog4 <= 700
 mvert4 <= 313
 mrecy4 <= 85
 mb30A4 <= 18
 mb30C4 <= 21
 mb484 <= 12
 mb074 <= 8
 mb134 <= 47
 mb844 <= 24
 mb834 <= 27
 mb054 <= 15
 mb044 <= 26
 mb2004 <= 27
 mb3004 <= 56
 mb4004 <= 93
 C150 <= 1
 C151 <= 1
 C152 <= 1
 C153 <= 1
 C154 <= 1
 C155 <= 1
 C156 <= 1
 C157 <= 1
 C158 <= 1
 mbiog5 <= 700
 mvert5 <= 313
 mrecy5 <= 85
 mb30A5 <= 18
 mb30C5 <= 21
 mb485 <= 12
 mb075 <= 8
 mb135 <= 47
 mb845 <= 24
 mb835 <= 27
 mb055 <= 15
 mb045 <= 26
 mb2005 <= 27
 mb3005 <= 56
 mb4005 <= 93
 C182 <= 1
 C183 <= 1
 C184 <= 1
 C185 <= 1
 C186 <= 1
 C187 <= 1
 C188 <= 1
 C189 <= 1
 C190 <= 1
 mbiog6 <= 700
 mvert6 <= 313
 mrecy6 <= 85
 mb30A6 <= 18
 mb30C6 <= 21
 mb486 <= 12
 mb076 <= 8
 mb136 <= 47
 mb846 <= 24
 mb836 <= 27
 mb056 <= 15
 mb046 <= 26
 mb2006 <= 27
 mb3006 <= 56
 mb4006 <= 93
 C214 <= 1
 C215 <= 1
 C216 <= 1
 C217 <= 1
 C218 <= 1
 C219 <= 1
 C220 <= 1
 C221 <= 1
 C222 <= 1
 mbiog7 <= 700
 mvert7 <= 313
 mrecy7 <= 85
 mb30A7 <= 18
 mb30C7 <= 21
 mb487 <= 12
 mb077 <= 8
 mb137 <= 47
 mb847 <= 24
 mb837 <= 27
 mb057 <= 15
 mb047 <= 26
 mb2007 <= 27
 mb3007 <= 56
 mb4007 <= 93
 C246 <= 1
 C247 <= 1
 C248 <= 1
 C249 <= 1
 C250 <= 1
 C251 <= 1
 C252 <= 1
 C253 <= 1
 C254 <= 1
 mbiog8 <= 700
 mvert8 <= 313
 mrecy8 <= 85
 mb30A8 <= 18
 mb30C8 <= 21
 mb488 <= 12
 mb078 <= 8
 mb138 <= 47
 mb848 <= 24
 mb838 <= 27
 mb058 <= 15
 mb048 <= 26
 mb2008 <= 27
 mb3008 <= 56
 mb4008 <= 93
 C278 <= 1
 C279 <= 1
 C280 <= 1
 C281 <= 1
 C282 <= 1
 C283 <= 1
 C284 <= 1
 C285 <= 1
 C286 <= 1
 mbiog9 <= 700
 mvert9 <= 313
 mrecy9 <= 85
 mb30A9 <= 18
 mb30C9 <= 21
 mb489 <= 12
 mb079 <= 8
 mb139 <= 47
 mb849 <= 24
 mb839 <= 27
 mb059 <= 15
 mb049 <= 26
 mb2009 <= 27
 mb3009 <= 56
 mb4009 <= 93
 C310 <= 1
 C311 <= 1
 C312 <= 1
 C313 <= 1
 C314 <= 1
 C315 <= 1
 C316 <= 1
 C317 <= 1
 C318 <= 1
 mbiog10 <= 700
 mvert10 <= 313
 mrecy10 <= 85
 mb30A10 <= 18
 mb30C10 <= 21
 mb4810 <= 12
 mb0710 <= 8
 mb1310 <= 47
 mb8410 <= 24
 mb8310 <= 27
 mb0510 <= 15
 mb0410 <= 26
 mb20010 <= 27
 mb30010 <= 56
 mb40010 <= 93
 C342 <= 1
 C343 <= 1
 C344 <= 1
 C345 <= 1
 C346 <= 1
 C347 <= 1
 C348 <= 1
 C349 <= 1
 C350 <= 1
 mbiog11 <= 700
 mvert11 <= 313
 mrecy11 <= 85
 mb30A11 <= 21
 mb30C11 <= 43
 mb4811 <= 75
 mb0711 <= 56
 mb1311 <= 51
 mb8411 <= 28
 mb8311 <= 27
 mb0511 <= 21
 mb0411 <= 37
 mb20011 <= 27
 mb30011 <= 56
 mb40011 <= 93
 C374 <= 1
 C375 <= 1
 C376 <= 1
 C377 <= 1
 C378 <= 1
 C379 <= 1
 C380 <= 1
 C381 <= 1
 C382 <= 1
 mbiog12 <= 700
 mvert12 <= 313
 mrecy12 <= 85
 mb30A12 <= 21
 mb30C12 <= 43
 mb4812 <= 75
 mb0712 <= 56
 mb1312 <= 51
 mb8412 <= 28
 mb8312 <= 27
 mb0512 <= 21
 mb0412 <= 37
 mb20012 <= 27
 mb30012 <= 56
 mb40012 <= 93
 C406 <= 1
 C407 <= 1
 C408 <= 1
 C409 <= 1
 C410 <= 1
 C411 <= 1
 C412 <= 1
 C413 <= 1
 C414 <= 1
 mbiog13 <= 700
 mvert13 <= 313
 mrecy13 <= 85
 mb30A13 <= 21
 mb30C13 <= 43
 mb4813 <= 75
 mb0713 <= 56
 mb1313 <= 51
 mb8413 <= 28
 mb8313 <= 27
 mb0513 <= 21
 mb0413 <= 37
 mb20013 <= 27
 mb30013 <= 56
 mb40013 <= 93
 C438 <= 1
 C439 <= 1
 C440 <= 1
 C441 <= 1
 C442 <= 1
 C443 <= 1
 C444 <= 1
 C445 <= 1
 C446 <= 1
 mbiog14 <= 700
 mvert14 <= 313
 mrecy14 <= 85
 mb30A14 <= 21
 mb30C14 <= 43
 mb4814 <= 75
 mb0714 <= 56
 mb1314 <= 51
 mb8414 <= 28
 mb8314 <= 27
 mb0514 <= 21
 mb0414 <= 37
 mb20014 <= 27
 mb30014 <= 56
 mb40014 <= 93
 C470 <= 1
 C471 <= 1
 C472 <= 1
 C473 <= 1
 C474 <= 1
 C475 <= 1
 C476 <= 1
 C477 <= 1
 C478 <= 1
 mbiog15 <= 700
 mvert15 <= 313
 mrecy15 <= 85
 mb30A15 <= 21
 mb30C15 <= 43
 mb4815 <= 75
 mb0715 <= 56
 mb1315 <= 51
 mb8415 <= 28
 mb8315 <= 27
 mb0515 <= 21
 mb0415 <= 37
 mb20015 <= 27
 mb30015 <= 56
 mb40015 <= 93
 C502 <= 1
 C503 <= 1
 C504 <= 1
 C505 <= 1
 C506 <= 1
 C507 <= 1
 C508 <= 1
 C509 <= 1
 C510 <= 1
 mbiog16 <= 700
 mvert16 <= 313
 mrecy16 <= 85
 mb30A16 <= 21
 mb30C16 <= 43
 mb4816 <= 75
 mb0716 <= 56
 mb1316 <= 51
 mb8416 <= 28
 mb8316 <= 27
 mb0516 <= 21
 mb0416 <= 37
 mb20016 <= 27
 mb30016 <= 56
 mb40016 <= 93
 C534 <= 1
 C535 <= 1
 C536 <= 1
 C537 <= 1
 C538 <= 1
 C539 <= 1
 C540 <= 1
 C541 <= 1
 C542 <= 1
 mbiog17 <= 700
 mvert17 <= 313
 mrecy17 <= 85
 mb30A17 <= 21
 mb30C17 <= 43
 mb4817 <= 75
 mb0717 <= 56
 mb1317 <= 51
 mb8417 <= 28
 mb8317 <= 27
 mb0517 <= 21
 mb0417 <= 37
 mb20017 <= 27
 mb30017 <= 56
 mb40017 <= 93
 C566 <= 1
 C567 <= 1
 C568 <= 1
 C569 <= 1
 C570 <= 1
 C571 <= 1
 C572 <= 1
 C573 <= 1
 C574 <= 1
 mbiog18 <= 700
 mvert18 <= 313
 mrecy18 <= 85
 mb30A18 <= 21
 mb30C18 <= 43
 mb4818 <= 75
 mb0718 <= 56
 mb1318 <= 51
 mb8418 <= 28
 mb8318 <= 27
 mb0518 <= 21
 mb0418 <= 37
 mb20018 <= 27
 mb30018 <= 56
 mb40018 <= 93
 C598 <= 1
 C599 <= 1
 C600 <= 1
 C601 <= 1
 C602 <= 1
 C603 <= 1
 C604 <= 1
 C605 <= 1
 C606 <= 1
 mbiog19 <= 700
 mvert19 <= 313
 mrecy19 <= 85
 mb30A19 <= 21
 mb30C19 <= 43
 mb4819 <= 75
 mb0719 <= 56
 mb1319 <= 51
 mb8419 <= 28
 mb8319 <= 27
 mb0519 <= 21
 mb0419 <= 37
 mb20019 <= 27
 mb30019 <= 56
 mb40019 <= 93
 C630 <= 1
 C631 <= 1
 C632 <= 1
 C633 <= 1
 C634 <= 1
 C635 <= 1
 C636 <= 1
 C637 <= 1
 C638 <= 1
 Constant = 1
Binaries
 incorp_biomasse0 incorp_biomasse1 incorp_biomasse2 incorp_biomasse3
 incorp_biomasse4 incorp_biomasse5 incorp_biomasse6 incorp_biomasse7
 incorp_biomasse8 incorp_biomasse9 incorp_biomasse10 incorp_biomasse11
 incorp_biomasse12 incorp_biomasse13 incorp_biomasse14 incorp_biomasse15
 incorp_biomasse16 incorp_biomasse17 incorp_biomasse18 incorp_biomasse19
SOS
 s0:  S2 :: C22:1 C23:2 C24:3 C25:4 C26:5 C27:6 C28:7 C29:8 C30:9
 s1:  S2 :: C54:1 C55:2 C56:3 C57:4 C58:5 C59:6 C60:7 C61:8 C62:9
 s2:  S2 :: C86:1 C87:2 C88:3 C89:4 C90:5 C91:6 C92:7 C93:8 C94:9
 s3:  S2 :: C118:1 C119:2 C120:3 C121:4 C122:5 C123:6 C124:7 C125:8 C126:9
 s4:  S2 :: C150:1 C151:2 C152:3 C153:4 C154:5 C155:6 C156:7 C157:8 C158:9
 s5:  S2 :: C182:1 C183:2 C184:3 C185:4 C186:5 C187:6 C188:7 C189:8 C190:9
 s6:  S2 :: C214:1 C215:2 C216:3 C217:4 C218:5 C219:6 C220:7 C221:8 C222:9
 s7:  S2 :: C246:1 C247:2 C248:3 C249:4 C250:5 C251:6 C252:7 C253:8 C254:9
 s8:  S2 :: C278:1 C279:2 C280:3 C281:4 C282:5 C283:6 C284:7 C285:8 C286:9
 s9:  S2 :: C310:1 C311:2 C312:3 C313:4 C314:5 C315:6 C316:7 C317:8 C318:9
 s10:  S2 :: C342:1 C343:2 C344:3 C345:4 C346:5 C347:6 C348:7 C349:8 C350:9
 s11:  S2 :: C374:1 C375:2 C376:3 C377:4 C378:5 C379:6 C380:7 C381:8 C382:9
 s12:  S2 :: C406:1 C407:2 C408:3 C409:4 C410:5 C411:6 C412:7 C413:8 C414:9
 s13:  S2 :: C438:1 C439:2 C440:3 C441:4 C442:5 C443:6 C444:7 C445:8 C446:9
 s14:  S2 :: C470:1 C471:2 C472:3 C473:4 C474:5 C475:6 C476:7 C477:8 C478:9
 s15:  S2 :: C502:1 C503:2 C504:3 C505:4 C506:5 C507:6 C508:7 C509:8 C510:9
 s16:  S2 :: C534:1 C535:2 C536:3 C537:4 C538:5 C539:6 C540:7 C541:8 C542:9
 s17:  S2 :: C566:1 C567:2 C568:3 C569:4 C570:5 C571:6 C572:7 C573:8 C574:9
 s18:  S2 :: C598:1 C599:2 C600:3 C601:4 C602:5 C603:6 C604:7 C605:8 C606:9
 s19:  S2 :: C630:1 C631:2 C632:3 C633:4 C634:5 C635:6 C636:7 C637:8 C638:9
End
